============================[ Problem Statistics ]=============================|                                                                             ||  Number of variables:          4242                                         ||  Number of clauses:           10418                                         ||  Parse time:                   0.80 s                                       ||                                                                             |============================[ Search Statistics ]==============================| Conflicts |          ORIGINAL         |          LEARNT          | Progress ||           |    Vars  Clauses Literals |    Limit  Clauses Lit/Cl |          |===============================================================================|       100 |    1591     6623  1284594 |     2428      100     53 | 62.501 % ||       250 |    1591     6623  1284594 |     2671      250     75 | 62.495 % |===============================================================================restarts              : 4conflicts             : 434            (360 /sec)decisions             : 796            (0.00 % random) (661 /sec)propagations          : 13714          (11390 /sec)conflict literals     : 36547          (94.48 % deleted)CPU time              : 1.204 sSATISFIABLE